NAME: concorde29
TYPE: TSP
COMMENT: Generated by CCutil_writetsplib
COMMENT: Write called for by Concorde GUI
DIMENSION: 12
EDGE_WEIGHT_TYPE: EUC_2D
NODE_COORD_SECTION
1 20833.333300 17100.000000
2 20900.000000 17066.666700
3 21300.000000 13016.666700
4 21600.000000 14150.000000
5 21600.000000 14966.666700
6 21600.000000 16500.000000
7 22183.333300 13133.333300
8 22583.333300 14300.000000
9 22683.333300 12716.666700
10 23616.666700 15866.666700
11 23700.000000 15933.333300
12 23883.333300 14533.333300
EOF
